StudentsNr = 10;
InstructorsNr = 78;
DaysNr = 1;
SlotsPerDay = 15;
AvailabilitySlotsLenght = 5;
RoomNr = 1;
ProgrammNr = 1;
DegreeNr = 2;
RolesNr = 0;
CoursesNr = 9;
InstructorsProgramm = [{1}, {1}, {1}, {1}, {1}, {1}, {1}, {1}, {1}, {1}, {1}, {1}, {1}, {1}, {1}, {1}, {1}, {1}, {1}, {1}, {1}, {1}, {1}, {1}, {1}, {1}, {1}, {1}, {1}, {1}, {1}, {1}, {1}, {1}, {1}, {1}, {1}, {1}, {1}, {1}, {1}, {1}, {1}, {1}, {1}, {1}, {1}, {1}, {1}, {1}, {1}, {1}, {1}, {1}, {1}, {1}, {1}, {1}, {1}, {1}, {1}, {1}, {1}, {1}, {1}, {1}, {1}, {1}, {1}, {1}, {1}, {1}, {1}, {1}, {1}, {1}, {1}, {1}];
InstructorRolesPerProgramm = array2d(1..ProgrammNr,{},[]);
InstructorsAvailability = [|0, 1, 1, |0, 1, 1, |0, 0, 1, |0, 0, 1, |0, 1, 1, |0, 1, 1, |0, 1, 1, |0, 1, 1, |1, 1, 0, |1, 1, 1, |1, 1, 1, |1, 1, 1, |1, 1, 1, |0, 1, 1, |1, 1, 1, |0, 0, 1, |0, 1, 1, |1, 1, 1, |0, 0, 1, |1, 1, 1, |0, 1, 1, |1, 1, 1, |1, 1, 1, |0, 0, 1, |0, 0, 1, |1, 1, 0, |0, 0, 1, |1, 1, 1, |0, 1, 1, |0, 0, 0, |1, 1, 1, |1, 0, 1, |0, 1, 1, |0, 1, 0, |0, 1, 1, |1, 0, 1, |1, 1, 1, |0, 1, 0, |0, 0, 0, |0, 0, 0, |0, 1, 1, |0, 1, 1, |1, 1, 1, |1, 1, 1, |1, 1, 1, |0, 0, 1, |1, 1, 1, |1, 1, 1, |0, 1, 1, |1, 0, 1, |0, 0, 1, |0, 1, 1, |1, 1, 0, |1, 1, 1, |0, 0, 1, |0, 0, 1, |0, 1, 1, |0, 1, 1, |0, 0, 1, |0, 0, 0, |1, 1, 1, |0, 1, 1, |1, 1, 1, |0, 1, 1, |1, 1, 1, |0, 0, 1, |0, 0, 0, |0, 1, 1, |0, 1, 0, |1, 1, 1, |0, 0, 1, |0, 0, 0, |0, 1, 1, |0, 1, 1, |1, 1, 1, |0, 0, 1, |0, 0, 0, |0, 1, 1|];
StudentsProgramm = [1, 1, 1, 1, 1, 1, 1, 1, 1, 1];
StudentsDegree = [2, 2, 1, 1, 2, 1, 1, 2, 2, 2];
StudentsSupervisorId = [42, 13, 52, 31, 60, 35, 5, 34, 52, 22];
StudentsCourseIds = [{1, 2, 3, 4, 5, 6, 7, 8, 9}, {1, 2, 3, 4, 5, 6, 7, 8, 9}, {}, {}, {1, 2, 3, 4, 5, 6, 7, 8, 9}, {}, {}, {1, 2, 3, 4, 5, 6, 7, 8, 9}, {1, 2, 3, 4, 5, 6, 7, 8, 9}, {1, 2, 3, 4, 5, 6, 7, 8, 9}];
StudentsAvailability = [|0, 1, 1, |1, 1, 1, |1, 1, 1, |0, 1, 1, |1, 1, 1, |1, 1, 1, |0, 1, 1, |0, 1, 1, |0, 0, 1, |1, 1, 1|];
TheoryticalMinCard = [9, 9, 1, 1, 9, 1, 1, 9, 9, 9];
CoursesInstructorIds = [{4, 6, 9, 10, 11, 13, 14, 15, 17, 19, 20, 21, 22, 25, 27, 28, 29, 31, 32, 33, 34, 36, 37, 38, 39, 44, 46, 47, 48, 50, 55, 57, 58, 60, 61, 62, 63, 64, 65, 69, 73, 74, 75, 77}, {5, 9, 18, 40, 48, 54, 55, 60, 74}, {6, 14, 17, 19, 33, 39, 42, 45}, {6, 7, 8, 11, 12, 17, 25, 30, 33, 59, 68}, {1, 3, 7, 11, 13, 14, 16, 19, 20, 22, 24, 26, 28, 29, 31, 33, 35, 36, 37, 40, 42, 43, 48, 49, 51, 52, 54, 55, 56, 57, 59, 60, 64, 67, 68, 71, 78}, {2, 3, 4, 5, 6, 9, 11, 12, 13, 14, 16, 18, 20, 21, 23, 24, 26, 27, 34, 37, 40, 41, 42, 43, 44, 45, 46, 47, 48, 49, 51, 53, 55, 57, 58, 60, 61, 65, 66, 67, 68, 70, 73, 74, 75, 77}, {12}, {4, 5, 6, 7, 8, 11, 12, 13, 15, 18, 19, 23, 24, 25, 29, 32, 33, 35, 36, 42, 43, 44, 46, 47, 51, 52, 53, 54, 56, 58, 59, 60, 62, 63, 65, 66, 67, 68, 69, 70, 71, 72, 74}, {6, 9, 17, 18, 30, 34, 46, 47, 56, 60, 61, 62, 63, 70, 71, 76, 78}];
RolesDemands = [];
RolesContinuity = [];
ExamLen = [1, 1, 2, 2, 1, 2, 2, 1, 1, 1];
LunchTsMinLen = 1;
LunchStarts = [7..8];
SupervisorAvailable = 0;
OptimalLunchLenght = [3, 1];
OptimalStartTs = [0, 0];
OptimalFinishTs = [0, 15];
MinimizeRooms = 0;
RolesSoftContinuity = array2d(1..2,{},[]);
SameDegreeInRoom = 20;
Mergeability = 2;
